(declare-fun temp1378_1 () (_ BitVec 64))
(declare-fun temp1378_2 () (_ BitVec 64))
(declare-fun var82549 () (_ BitVec 64))
(declare-fun k!0 () Bool)
(declare-fun ARGNAME_input_NAMEEND_DIM () (_ BitVec 64))
(declare-fun temp1378_3 () (_ BitVec 64))
(declare-fun ARGNAME_sections_NAMEEND () (_ BitVec 64))
(declare-fun var82574 () (_ BitVec 64))
(declare-fun temp1378_4 () (_ BitVec 64))
(declare-fun temp1378_5 () (_ BitVec 64))
(declare-fun var66699 () (_ BitVec 64))
(declare-fun temp1378_6 () (_ BitVec 64))
(declare-fun temp1378_7 () (_ BitVec 64))
(declare-fun ARGNAME_input_NAMEEND_DIMSIZE
             ()
             (Array (_ BitVec 64) (_ BitVec 64)))
(declare-fun temp1378_8 () (_ BitVec 64))
(declare-fun temp1378_9 () (_ BitVec 64))
(declare-fun temp1378_10 () (_ BitVec 64))
(declare-fun temp1378_11 () (_ BitVec 64))
(declare-fun temp1378_12 () (_ BitVec 64))
(declare-fun temp1378_13 () (_ BitVec 64))
(declare-fun temp1378_14 () (_ BitVec 64))
(declare-fun temp1378_15 () (_ BitVec 64))
(declare-fun temp1378_16 () (_ BitVec 64))
(declare-fun temp1378_17 () (_ BitVec 64))
(declare-fun temp1378_18 () (_ BitVec 64))
(declare-fun temp1378_19 () (_ BitVec 64))
(declare-fun temp1378_20 () (_ BitVec 64))
(declare-fun temp1378_21 () (_ BitVec 64))
(declare-fun temp1378_22 () (_ BitVec 64))
(declare-fun temp1378_23 () (_ BitVec 64))
(declare-fun temp1378_25 () (_ BitVec 64))
(declare-fun temp1378_26 () (_ BitVec 64))
(declare-fun temp1378_24 () (_ BitVec 64))
(declare-fun var82588 () (_ BitVec 64))
(declare-fun temp1378_27 () (_ BitVec 64))
(declare-fun var82589 () (_ BitVec 64))
(declare-fun temp1378_28 () (_ BitVec 64))
(declare-fun var140605 () (_ BitVec 64))
(declare-fun temp1378_29 () (_ BitVec 64))
(declare-fun var140635 () (_ BitVec 64))
(declare-fun temp1378_30 () (_ BitVec 64))
(declare-fun temp1378_31 () (_ BitVec 64))
(declare-fun var140664 () (_ BitVec 64))
(declare-fun temp1378_32 () (_ BitVec 64))
(declare-fun temp1378_34 () (_ BitVec 64))
(declare-fun temp1378_33 () (_ BitVec 64))
(declare-fun temp1378_36 () (_ BitVec 64))
(declare-fun temp1378_35 () (_ BitVec 64))
(declare-fun var462146 () (_ BitVec 64))
(declare-fun temp1378_37 () (_ BitVec 64))
(declare-fun temp1378_38 () (_ BitVec 64))
(declare-fun var527687 () (_ BitVec 64))
(declare-fun var593234 () (_ BitVec 64))
(declare-fun temp1378_39 () (_ BitVec 64))
(declare-fun var1130139 () (_ BitVec 64))
(declare-fun temp1378_40 () (_ BitVec 64))
(declare-fun var1130188 () (_ BitVec 64))
(declare-fun temp1378_41 () (_ BitVec 64))
(declare-fun temp1378_42 () (_ BitVec 64))
(declare-fun var1380938 () (_ BitVec 64))
(declare-fun temp1378_43 () (_ BitVec 64))
(declare-fun var2101834 () (_ BitVec 64))
(declare-fun temp1378_44 () (_ BitVec 64))
(declare-fun var1130304 () (_ BitVec 64))
(declare-fun temp1378_45 () (_ BitVec 64))
(declare-fun var1130305 () (_ BitVec 64))
(declare-fun temp1378_46 () (_ BitVec 64))
(declare-fun temp1378_47 () (_ BitVec 64))
(declare-fun var1130349 () (_ BitVec 64))
(declare-fun temp1378_48 () (_ BitVec 64))
(declare-fun temp1378_49 () (_ BitVec 64))
(declare-fun var3357340 () (_ BitVec 64))
(declare-fun var3357344 () (_ BitVec 64))
(declare-fun temp1378_51 () (_ BitVec 64))
(declare-fun temp1378_50 () (_ BitVec 64))
(assert (= temp1378_1 #x0000000000000002))
(assert (= var82549
   (ite (bvslt ARGNAME_input_NAMEEND_DIM temp1378_1)
        #x0000000000000001
        #x0000000000000000)))
(assert (= temp1378_2 #x0000000000000000))
(assert (= var82549 temp1378_2))
(assert (= temp1378_3 #x0000000000000000))
(assert (= var82574
   (ite (= ARGNAME_sections_NAMEEND temp1378_3)
        #x0000000000000001
        #x0000000000000000)))
(assert (= temp1378_4 #x0000000000000000))
(assert (= var82574 temp1378_4))
(assert (= temp1378_5 #x0000000000000000))
(assert (= var66699 temp1378_5))
(assert (= temp1378_6 #x0000000000000000))
(assert (= temp1378_7 temp1378_6))
(assert (= temp1378_8 (select ARGNAME_input_NAMEEND_DIMSIZE temp1378_7)))
(assert (= temp1378_9 #x0000000000000001))
(assert (= temp1378_10 temp1378_9))
(assert (= temp1378_11 (select ARGNAME_input_NAMEEND_DIMSIZE temp1378_10)))
(assert (= temp1378_12 #x0000000000000002))
(assert (= temp1378_13 temp1378_12))
(assert (= temp1378_14 (select ARGNAME_input_NAMEEND_DIMSIZE temp1378_13)))
(assert (= temp1378_15 #x0000000000000003))
(assert (= temp1378_16 temp1378_15))
(assert (= temp1378_17 (select ARGNAME_input_NAMEEND_DIMSIZE temp1378_16)))
(assert (= temp1378_18 #x0000000000000004))
(assert (= temp1378_19 temp1378_18))
(assert (= temp1378_20 (select ARGNAME_input_NAMEEND_DIMSIZE temp1378_19)))
(assert (= temp1378_21 #x0000000000000005))
(assert (= temp1378_22 temp1378_21))
(assert (= temp1378_23 (select ARGNAME_input_NAMEEND_DIMSIZE temp1378_22)))
(assert (= temp1378_25 var66699))
(assert (= temp1378_26 (select ARGNAME_input_NAMEEND_DIMSIZE temp1378_25)))
(assert (= temp1378_24 temp1378_26))
(assert (= var82588 (bvsmod temp1378_24 ARGNAME_sections_NAMEEND)))
(assert (= temp1378_27 #x0000000000000000))
(assert (= var82589
   (ite (= var82588 temp1378_27) #x0000000000000001 #x0000000000000000)))
(assert (= temp1378_28 #x0000000000000001))
(assert (= var82589 temp1378_28))
(assert (= var140605 var66699))
(assert (= temp1378_29 #x0000000000000001))
(assert (= var140635
   (ite (bvslt ARGNAME_input_NAMEEND_DIM temp1378_29)
        #x0000000000000001
        #x0000000000000000)))
(assert (= temp1378_30 #x0000000000000000))
(assert (= var140635 temp1378_30))
(assert (= temp1378_31 #x0000000000000001))
(assert (= var140664
   (ite (bvslt ARGNAME_sections_NAMEEND temp1378_31)
        #x0000000000000001
        #x0000000000000000)))
(assert (= temp1378_32 #x0000000000000000))
(assert (= var140664 temp1378_32))
(assert (= temp1378_34 #x0000000000000000))
(assert (= temp1378_33 temp1378_34))
(assert (= temp1378_36 #x0000000000000000))
(assert (= temp1378_35 temp1378_36))
(assert (= var462146
   (ite (bvslt temp1378_35 ARGNAME_sections_NAMEEND)
        #x0000000000000001
        #x0000000000000000)))
(assert (= temp1378_37
   (ite (= var462146 #x0000000000000001) ARGNAME_sections_NAMEEND temp1378_35)))
(assert (= temp1378_38 #x0000000000000000))
(assert (= var527687 temp1378_38))
(assert (= var593234 var527687))
(assert (= temp1378_39 #x0000000000000001))
(assert (= var1130139 temp1378_39))
(assert (= temp1378_40 #x0000000000000000))
(assert (= var1130188
   (ite (= ARGNAME_input_NAMEEND_DIM temp1378_40)
        #x0000000000000001
        #x0000000000000000)))
(assert (= temp1378_41 #x0000000000000000))
(assert (= var1130188 temp1378_41))
(assert (= temp1378_42 #x0000000000000005))
(assert (= var1380938 temp1378_42))
(assert (= temp1378_43 #x0000000000000005))
(assert (= var2101834 temp1378_43))
(assert (= temp1378_44 #xffffffffffffffff))
(assert (= var1130304 temp1378_44))
(assert (= temp1378_45 #x0000000000000001))
(assert (= var1130305
   (ite (bvslt var1130139 temp1378_45) #x0000000000000001 #x0000000000000000)))
(assert (= temp1378_46 #x0000000000000000))
(assert (= var1130305 temp1378_46))
(assert (= temp1378_47 #x0000000000000000))
(assert (= var1130349
   (ite (bvslt var1130304 temp1378_47) #x0000000000000001 #x0000000000000000)))
(assert (= temp1378_48 #x0000000000000001))
(assert (= var1130349 temp1378_48))
(assert (= temp1378_49 #x0000000000000000))
(assert (= var3357340 temp1378_49))
(assert (= var3357344 var1130139))
(assert (= temp1378_51 #x0000000000000000))
(assert (= temp1378_50 temp1378_51))
(model-add temp1378_1 () (_ BitVec 64) #x0000000000000002)
(model-add temp1378_2 () (_ BitVec 64) #x0000000000000000)
(model-add var82549 () (_ BitVec 64) #x0000000000000000)
(model-del k!0)
(model-add ARGNAME_input_NAMEEND_DIM
           ()
           (_ BitVec 64)
           (ite (or k!0 (= #x0000000000000002 #x8000000000000000))
                #x0000000000000002
                (bvsub #x0000000000000002 #x0000000000000001)))





